Traveling Salesman Problem/TSP_generados/Aleatorio1621103553_16.tsp
NAME: Aleatorio1621103553_16.tsp
COMMENT: Randomly generated scenario
TYPE: TSP
DIMENSION: 16
EDGE_WEIGHT_TYPE: ATT
NODE_COORD_SECTION
1 20.34 0.42
2 21.85 13.54
3 3.87 14.66
4 20.93 31.06
5 14.52 48.32
6 28.2 32.11
7 33.19 34.77
8 13.59 16.22
9 24.3 16.21
10 41.52 23.71
11 12.81 7.5
12 47.14 47.14
13 7.45 32.5
14 21.83 46.39
15 36.0 34.4
16 35.01 16.68
