Traveling Salesman Problem/TSP_generados/Aleatorio1621103553_16.opt.tour
NAME: Aleatorio1621103553_16.opt.tour
COMMENT: Optimal solution for Aleatorio1621103553_16 (181.35989473915254)
TYPE: TOUR
DIMENSION: 16
TOUR_SECTION
1 11 8 3 13 5 14 4 6 7 15 12 10 16 9 2
-1
EOF
